0 13 58 57 68 83 7 18 34 21 49 24 91 14 
13 0 37 70 10 61 34 16 96 3 87 53 5 71 
58 37 0 24 39 92 3 93 91 91 91 7 27 27 
57 70 24 0 6 61 98 32 93 96 50 81 24 92 
68 10 39 6 0 65 60 84 15 46 21 59 19 12 
83 61 92 61 65 0 82 3 93 25 79 74 12 25 
7 34 3 98 60 82 0 55 28 29 70 95 87 25 
18 16 93 32 84 3 55 0 96 62 67 28 42 23 
34 96 91 93 15 93 28 96 0 46 85 11 15 95 
21 3 91 96 46 25 29 62 46 0 38 8 7 75 
49 87 91 50 21 79 70 67 85 38 0 52 15 14 
24 53 7 81 59 74 95 28 11 8 52 0 81 36 
91 5 27 24 19 12 87 42 15 7 15 81 0 49 
14 71 27 92 12 25 25 23 95 75 14 36 49 0 
